(set-logic QF_S)
(declare-fun var0 () String)
(assert (str.in.re var0 (re.++ (re.* (re.* (str.to.re "000"))) (re.++ (re.* (re.union (str.to.re "111") (str.to.re "22"))) (re.++ (re.* (re.union (str.to.re "333") (str.to.re "4"))) (re.++ (re.union (re.union (str.to.re "5") (str.to.re "6")) (re.union (str.to.re "7") (str.to.re "888"))) (re.++ (re.* (re.+ (str.to.re "9"))) (re.++ (re.union (re.+ (str.to.re "aa")) (re.+ (str.to.re "bbb"))) (re.++ (re.* (re.* (str.to.re "c"))) (re.++ (re.* (re.* (str.to.re "d"))) (re.++ (re.* (re.union (str.to.re "eee") (str.to.re "f"))) (re.++ (re.+ (re.+ (str.to.re "gg"))) (re.++ (re.* (re.union (str.to.re "hhh") (str.to.re "iii"))) (re.++ (re.* (re.+ (str.to.re "j"))) (re.++ (re.union (re.+ (str.to.re "k")) (re.+ (str.to.re "lll"))) (re.++ (re.union (re.+ (str.to.re "m")) (re.+ (str.to.re "n"))) (re.++ (re.union (re.* (str.to.re "o")) (re.* (str.to.re "p"))) (re.++ (re.* (re.union (str.to.re "qq") (str.to.re "r"))) (re.++ (re.+ (re.union (str.to.re "sss") (str.to.re "t"))) (re.++ (re.* (re.+ (str.to.re "u"))) (re.++ (re.union (re.+ (str.to.re "vv")) (re.+ (str.to.re "ww"))) (re.++ (re.union (re.+ (str.to.re "xxx")) (re.+ (str.to.re "yyy"))) (re.++ (re.+ (re.+ (str.to.re "zzz"))) (re.++ (re.* (re.union (str.to.re "AA") (str.to.re "BB"))) (re.++ (re.+ (re.* (str.to.re "C"))) (re.++ (re.* (re.+ (str.to.re "DDD"))) (re.++ (re.union (re.union (str.to.re "E") (str.to.re "FF")) (re.union (str.to.re "GG") (str.to.re "HHH"))) (re.++ (re.union (re.union (str.to.re "I") (str.to.re "JJJ")) (re.union (str.to.re "K") (str.to.re "LL"))) (re.++ (re.+ (re.* (str.to.re "MMM"))) (re.++ (re.+ (re.* (str.to.re "NNN"))) (re.++ (re.union (re.+ (str.to.re "OOO")) (re.+ (str.to.re "PP"))) (re.++ (re.* (re.* (str.to.re "QQ"))) (re.++ (re.* (re.union (str.to.re "R") (str.to.re "SSS"))) (re.++ (re.+ (re.union (str.to.re "TTT") (str.to.re "UU"))) (re.++ (re.+ (re.+ (str.to.re "VV"))) (re.++ (re.union (re.union (str.to.re "WWW") (str.to.re "X")) (re.union (str.to.re "YY") (str.to.re "ZZ"))) (re.++ (re.+ (re.union (str.to.re "!!") (str.to.re """"""))) (re.++ (re.* (re.+ (str.to.re "##"))) (re.++ (re.union (re.+ (str.to.re "$")) (re.+ (str.to.re "%%%"))) (re.++ (re.+ (re.* (str.to.re "&&&"))) (re.++ (re.+ (re.+ (str.to.re "'"))) (re.++ (re.+ (re.+ (str.to.re "(("))) (re.++ (re.* (re.+ (str.to.re ")))"))) (re.++ (re.union (re.+ (str.to.re "*")) (re.+ (str.to.re "+"))) (re.++ (re.* (re.+ (str.to.re ",,"))) (re.++ (re.union (re.+ (str.to.re "-")) (re.+ (str.to.re "."))) (re.++ (re.union (re.* (str.to.re "/")) (re.* (str.to.re "::"))) (re.++ (re.+ (re.* (str.to.re ";;;"))) (re.++ (re.+ (re.union (str.to.re "<<") (str.to.re "=="))) (re.++ (re.+ (re.+ (str.to.re ">"))) (re.++ (re.union (re.* (str.to.re "??")) (re.* (str.to.re "@@@"))) (re.++ (re.* (re.* (str.to.re "[[["))) (re.++ (re.* (re.+ (str.to.re "\\"))) (re.++ (re.+ (re.* (str.to.re "]]"))) (re.++ (re.union (re.union (str.to.re "^^^") (str.to.re "___")) (re.union (str.to.re "```") (str.to.re "{"))) (re.++ (re.union (re.+ (str.to.re "|||")) (re.+ (str.to.re "}}"))) (re.++ (re.* (re.* (str.to.re "~"))) (re.++ (re.union (re.union (str.to.re "0") (str.to.re "1")) (re.union (str.to.re "222") (str.to.re "333"))) (re.++ (re.union (re.+ (str.to.re "44")) (re.+ (str.to.re "555"))) (re.++ (re.+ (re.union (str.to.re "66") (str.to.re "77"))) (re.++ (re.union (re.union (str.to.re "88") (str.to.re "99")) (re.union (str.to.re "aa") (str.to.re "b"))) (re.++ (re.* (re.* (str.to.re "ccc"))) (re.++ (re.union (re.+ (str.to.re "dd")) (re.+ (str.to.re "eee"))) (re.++ (re.* (re.+ (str.to.re "f"))) (re.++ (re.* (re.+ (str.to.re "g"))) (re.++ (re.+ (re.+ (str.to.re "hhh"))) (re.++ (re.+ (re.union (str.to.re "i") (str.to.re "jj"))) (re.++ (re.* (re.union (str.to.re "kkk") (str.to.re "ll"))) (re.++ (re.* (re.* (str.to.re "m"))) (re.++ (re.* (re.* (str.to.re "nnn"))) (re.++ (re.* (re.* (str.to.re "oo"))) (re.++ (re.union (re.+ (str.to.re "ppp")) (re.+ (str.to.re "q"))) (re.++ (re.+ (re.+ (str.to.re "rrr"))) (re.++ (re.+ (re.union (str.to.re "ss") (str.to.re "tt"))) (re.++ (re.+ (re.* (str.to.re "uu"))) (re.++ (re.union (re.union (str.to.re "vv") (str.to.re "ww")) (re.union (str.to.re "xxx") (str.to.re "yyy"))) (re.++ (re.* (re.union (str.to.re "z") (str.to.re "AA"))) (re.++ (re.* (re.* (str.to.re "BBB"))) (re.++ (re.* (re.union (str.to.re "CCC") (str.to.re "DD"))) (re.++ (re.* (re.union (str.to.re "EEE") (str.to.re "FF"))) (re.++ (re.union (re.* (str.to.re "G")) (re.* (str.to.re "H"))) (re.++ (re.+ (re.+ (str.to.re "III"))) (re.++ (re.* (re.+ (str.to.re "J"))) (re.++ (re.+ (re.+ (str.to.re "KKK"))) (re.++ (re.union (re.union (str.to.re "LL") (str.to.re "MM")) (re.union (str.to.re "NNN") (str.to.re "OO"))) (re.++ (re.union (re.union (str.to.re "PP") (str.to.re "Q")) (re.union (str.to.re "RR") (str.to.re "S"))) (re.++ (re.+ (re.union (str.to.re "T") (str.to.re "U"))) (re.++ (re.+ (re.+ (str.to.re "V"))) (re.++ (re.* (re.* (str.to.re "W"))) (re.++ (re.+ (re.+ (str.to.re "XX"))) (re.++ (re.+ (re.+ (str.to.re "YY"))) (re.++ (re.+ (re.+ (str.to.re "ZZZ"))) (re.++ (re.union (re.+ (str.to.re "!!")) (re.+ (str.to.re """"""))) (re.++ (re.* (re.union (str.to.re "##") (str.to.re "$"))) (re.++ (re.+ (re.union (str.to.re "%%") (str.to.re "&&"))) (re.++ (re.union (re.* (str.to.re "''")) (re.* (str.to.re "(("))) (re.++ (re.union (re.+ (str.to.re ")")) (re.+ (str.to.re "**"))) (re.++ (re.+ (re.* (str.to.re "+"))) (re.++ (re.+ (re.union (str.to.re ",,") (str.to.re "---"))) (re.++ (re.* (re.+ (str.to.re ".."))) (re.++ (re.+ (re.+ (str.to.re "///"))) (re.++ (re.+ (re.+ (str.to.re ":::"))) (re.++ (re.+ (re.+ (str.to.re ";;"))) (re.++ (re.+ (re.* (str.to.re "<<"))) (re.++ (re.union (re.union (str.to.re "=") (str.to.re ">")) (re.union (str.to.re "???") (str.to.re "@"))) (re.++ (re.union (re.* (str.to.re "[[[")) (re.* (str.to.re "\\\\"))) (re.++ (re.union (re.* (str.to.re "]")) (re.* (str.to.re "^^^"))) (re.++ (re.+ (re.union (str.to.re "___") (str.to.re "`"))) (re.++ (re.+ (re.union (str.to.re "{{{") (str.to.re "|"))) (re.++ (re.* (re.union (str.to.re "}}}") (str.to.re "~"))) (re.++ (re.union (re.+ (str.to.re "0")) (re.+ (str.to.re "1"))) (re.++ (re.+ (re.union (str.to.re "2") (str.to.re "33"))) (re.++ (re.+ (re.+ (str.to.re "4"))) (re.++ (re.* (re.+ (str.to.re "555"))) (re.++ (re.+ (re.union (str.to.re "66") (str.to.re "7"))) (re.++ (re.* (re.* (str.to.re "8"))) (re.++ (re.union (re.+ (str.to.re "99")) (re.+ (str.to.re "aa"))) (re.++ (re.* (re.union (str.to.re "bbb") (str.to.re "cc"))) (re.++ (re.+ (re.union (str.to.re "d") (str.to.re "ee"))) (re.++ (re.+ (re.+ (str.to.re "f"))) (re.++ (re.union (re.+ (str.to.re "ggg")) (re.+ (str.to.re "h"))) (re.++ (re.union (re.union (str.to.re "ii") (str.to.re "jjj")) (re.union (str.to.re "k") (str.to.re "l"))) (re.++ (re.+ (re.union (str.to.re "m") (str.to.re "n"))) (re.++ (re.+ (re.+ (str.to.re "ooo"))) (re.++ (re.* (re.union (str.to.re "pp") (str.to.re "qq"))) (re.++ (re.* (re.union (str.to.re "r") (str.to.re "ss"))) (re.++ (re.+ (re.+ (str.to.re "ttt"))) (re.++ (re.* (re.* (str.to.re "uu"))) (re.++ (re.+ (re.+ (str.to.re "vvv"))) (re.++ (re.union (re.+ (str.to.re "ww")) (re.+ (str.to.re "xx"))) (re.++ (re.+ (re.* (str.to.re "y"))) (re.++ (re.union (re.* (str.to.re "z")) (re.* (str.to.re "AAA"))) (re.++ (re.+ (re.* (str.to.re "BBB"))) (re.++ (re.* (re.+ (str.to.re "CC"))) (re.++ (re.union (re.* (str.to.re "DDD")) (re.* (str.to.re "E"))) (re.++ (re.* (re.+ (str.to.re "F"))) (re.++ (re.+ (re.* (str.to.re "GGG"))) (re.++ (re.union (re.* (str.to.re "HHH")) (re.* (str.to.re "II"))) (re.++ (re.* (re.* (str.to.re "JJ"))) (re.++ (re.union (re.* (str.to.re "K")) (re.* (str.to.re "LLL"))) (re.++ (re.union (re.+ (str.to.re "M")) (re.+ (str.to.re "NNN"))) (re.++ (re.* (re.union (str.to.re "O") (str.to.re "PP"))) (re.++ (re.union (re.+ (str.to.re "Q")) (re.+ (str.to.re "R"))) (re.++ (re.+ (re.union (str.to.re "S") (str.to.re "TT"))) (re.++ (re.union (re.union (str.to.re "UU") (str.to.re "VVV")) (re.union (str.to.re "W") (str.to.re "XX"))) (re.++ (re.* (re.* (str.to.re "YY"))) (re.++ (re.* (re.* (str.to.re "ZZ"))) (re.++ (re.union (re.union (str.to.re "!!") (str.to.re """")) (re.union (str.to.re "###") (str.to.re "$"))) (re.++ (re.* (re.+ (str.to.re "%%"))) (re.++ (re.* (re.union (str.to.re "&") (str.to.re "'"))) (re.++ (re.+ (re.union (str.to.re "((") (str.to.re ")"))) (re.++ (re.+ (re.union (str.to.re "*") (str.to.re "++"))) (re.++ (re.+ (re.* (str.to.re ","))) (re.++ (re.* (re.* (str.to.re "---"))) (re.++ (re.+ (re.+ (str.to.re ".."))) (re.++ (re.* (re.* (str.to.re "///"))) (re.++ (re.union (re.* (str.to.re "::")) (re.* (str.to.re ";;"))) (re.++ (re.union (re.+ (str.to.re "<<")) (re.+ (str.to.re "="))) (re.++ (re.union (re.union (str.to.re ">>") (str.to.re "??")) (re.union (str.to.re "@") (str.to.re "["))) (re.++ (re.* (re.* (str.to.re "\\\\\\"))) (re.++ (re.* (re.* (str.to.re "]]"))) (re.++ (re.+ (re.+ (str.to.re "^"))) (re.++ (re.union (re.+ (str.to.re "__")) (re.+ (str.to.re "`"))) (re.++ (re.union (re.+ (str.to.re "{{{")) (re.+ (str.to.re "|||"))) (re.++ (re.union (re.union (str.to.re "}}}") (str.to.re "~~")) (re.union (str.to.re "00") (str.to.re "1"))) (re.++ (re.union (re.union (str.to.re "222") (str.to.re "33")) (re.union (str.to.re "4") (str.to.re "5"))) (re.++ (re.+ (re.* (str.to.re "66"))) (re.++ (re.union (re.union (str.to.re "77") (str.to.re "888")) (re.union (str.to.re "99") (str.to.re "a"))) (re.++ (re.+ (re.union (str.to.re "b") (str.to.re "c"))) (re.++ (re.+ (re.union (str.to.re "ddd") (str.to.re "eee"))) (re.++ (re.+ (re.* (str.to.re "f"))) (re.++ (re.* (re.union (str.to.re "gg") (str.to.re "hhh"))) (re.++ (re.+ (re.union (str.to.re "ii") (str.to.re "j"))) (re.++ (re.* (re.* (str.to.re "kkk"))) (re.++ (re.+ (re.* (str.to.re "l"))) (re.++ (re.* (re.+ (str.to.re "mm"))) (re.++ (re.union (re.* (str.to.re "n")) (re.* (str.to.re "ooo"))) (re.union (re.* (str.to.re "pp")) (re.* (str.to.re "qqq"))))))))))))))))))))))))))))))))))))))))))))))))))))))))))))))))))))))))))))))))))))))))))))))))))))))))))))))))))))))))))))))))))))))))))))))))))))))))))))))))))))))))))))))))))))
(check-sat)